NAME lp_typeD_927
OBJSENSE MAX
ROWS
 N  OBJ
 L  c0      
 G  c1      
 G  c2      
 L  c_key_upper
 G  c_key_lower
 G  _chain_constr_1
 G  _chain_constr_2
 G  _chain_constr_3
 G  _chain_cycle
COLUMNS
    x0        OBJ       1.0790388760425689e+00
    x0        c0        1.9577691390628604e+00
    x0        c1        1.3644157437173547e+00
    x0        c2        1.2232886654322683e+00
    x0        c_key_upper  1.9501950985916017e+00
    x0        c_key_lower  1.9501950985916017e+00
    x1        OBJ       1.2423621176346853e+00
    x1        c0        9.2743464974056855e-01
    x1        c1        5.8640318624598309e-01
    x1        c2        1.0655792938608759e+00
    x1        c_key_upper  1.8660289836621287e+00
    x1        c_key_lower  1.8660289836621287e+00
    x2        OBJ       9.9282458448723787e-01
    x2        c0        0.780169892730079
    x2        c1        1.9469149061218751e+00
    x2        c2        1.0185957304349791e+00
    x2        c_key_upper  1.3681441690785667e+00
    x2        c_key_lower  1.3681441690785667e+00
    x3        OBJ       1.3214699567352022e+00
    x3        c0        1.3654735996653091e+00
    x3        c1        5.6612690544269606e-01
    x3        c2        5.3739055431141591e-01
    x3        c_key_upper  1.19310084793926
    x3        c_key_lower  1.19310084793926
    x4        OBJ       8.0714769108814266e-01
    x4        c0        0.941340350152051
    x4        c1        8.9146099187140593e-01
    x4        c2        1.2675848410936721e+00
    x4        c_key_upper  1.7923738755291059e+00
    x4        c_key_lower  1.7923738755291059e+00
    x5        OBJ       1.4870908168568142e+00
    x5        c0        9.0726136827175075e-01
    x5        c1        1.7135626891568490e+00
    x5        c2        9.4310978627330322e-01
    x5        c_key_upper  1.0492712935641295e+00
    x5        c_key_lower  1.0492712935641295e+00
    x6        OBJ       7.8021896783312494e-01
    x6        c0        9.6119816575104411e-01
    x6        c1        1.7410118869361049e+00
    x6        c2        7.8350093079572392e-01
    x6        c_key_upper  1.2154956752172468e+00
    x6        c_key_lower  1.2154956752172468e+00
    _chain_var_0  _chain_constr_1  -1
    _chain_var_0  _chain_cycle  1
    _chain_var_1  _chain_constr_1  1
    _chain_var_1  _chain_constr_2  -1
    _chain_var_2  _chain_constr_2  1
    _chain_var_2  _chain_constr_3  -1
    _chain_var_3  _chain_constr_3  1
    _chain_var_3  _chain_cycle  -1
RHS
    RHS1      c0        4.4554073045649737e+01
    RHS1      c1        1.2860103328088801e+01
    RHS1      c2        7.0877623705734667e+00
    RHS1      c_key_upper  5.2173049717910196e+01
    RHS1      c_key_lower  2.6086524858955098e+01
    RHS1      _chain_constr_1  10
    RHS1      _chain_constr_2  10
    RHS1      _chain_constr_3  10
    RHS1      _chain_cycle  10
BOUNDS
 UP BND1      x0        10
 UP BND1      x1        10
 UP BND1      x2        10
 UP BND1      x3        10
 UP BND1      x4        10
 UP BND1      x5        10
 UP BND1      x6        10
 UP BND1      _chain_var_0  100
 UP BND1      _chain_var_1  100
 UP BND1      _chain_var_2  100
 UP BND1      _chain_var_3  100
ENDATA
